30	35
35	40
40	45
45	50
50	55
55	60
60	70
70	80
80	90
90	150
150	210
210	270
270	330
330	480
480	630
630	930
930	1230
1230	1830
1830	2430
2430	3030
3030	3630
3630    4230
4230    4830
4830    5430
5430    6030
6030    6630
6630    7230
7230    7830
7830    8430
8430    9030
9630    10230